0 2463.1 2245.9 2199.2 2316.4 2230.6 2145.2 2407.5 2151.5 2261.3 2115.4 2257.9 2237.7 2303.4 2050.1 2407.2 2324.8 2172.1 2390.9 2035.2 2242.2 2479.1 2057.6 2430.7 2295.2 2225.1 2161.1 2148.3 2367.2 2000.4 2215.4 2313.3 2448.3 2352.2 2346.3 2151.3 2393.7 2269.5 2101 2177 2069.7 2405.8 2440.3 2209.9 2060 2360.8 2367.5 2121.6 2161.4 2102.1 2348.1 2482.8 2464.6 2446.5 2250.6 2074.5 2347.1 0
